15 11 30 82 95 76 57 21 70 40 43 35 54 9 10 64 61 81 13 96 20 37 25 38 52 48 93 41 42 14 44 18 50 63 59 86 27 67 73 22 75 2 24 71 5 66 91 94 60 68 55 80 62 51 7 92 26 3 17 28 69 46 98 56 36 65 49 77 90 97 12 0 58 31 1 78 89 34 79 29 32 39 72 84 23 45 33 4 53 16 83 74 19 85 8 88 87 47 99 6